(set-logic QF_NRA)
(declare-fun w_1_0_t () Real)
(declare-fun w_1_0_0 () Real)
(declare-fun w_1_1_t () Real)
(declare-fun w_1_1_0 () Real)
(declare-fun w_1_2_t () Real)
(declare-fun w_1_2_0 () Real)
(declare-fun w_1_3_t () Real)
(declare-fun w_1_3_0 () Real)
(declare-fun w_2_0_t () Real)
(declare-fun w_2_0_0 () Real)
(declare-fun w_2_1_t () Real)
(declare-fun w_2_1_0 () Real)
(declare-fun w_2_2_t () Real)
(declare-fun w_2_2_0 () Real)
(declare-fun w_2_3_t () Real)
(declare-fun w_2_3_0 () Real)
(declare-fun w_3_0_t () Real)
(declare-fun w_3_0_0 () Real)
(declare-fun w_3_1_t () Real)
(declare-fun w_3_1_0 () Real)
(declare-fun w_3_2_t () Real)
(declare-fun w_3_2_0 () Real)
(declare-fun w_3_3_t () Real)
(declare-fun w_3_3_0 () Real)
(declare-fun v_1_0_t () Real)
(declare-fun v_1_0_0 () Real)
(declare-fun v_1_1_t () Real)
(declare-fun v_1_1_0 () Real)
(declare-fun v_1_2_t () Real)
(declare-fun v_1_2_0 () Real)
(declare-fun v_1_3_t () Real)
(declare-fun v_1_3_0 () Real)
(declare-fun v_2_0_t () Real)
(declare-fun v_2_0_0 () Real)
(declare-fun v_2_1_t () Real)
(declare-fun v_2_1_0 () Real)
(declare-fun v_2_2_t () Real)
(declare-fun v_2_2_0 () Real)
(declare-fun v_2_3_t () Real)
(declare-fun v_2_3_0 () Real)
(declare-fun v_3_0_t () Real)
(declare-fun v_3_0_0 () Real)
(declare-fun v_3_1_t () Real)
(declare-fun v_3_1_0 () Real)
(declare-fun v_3_2_t () Real)
(declare-fun v_3_2_0 () Real)
(declare-fun v_3_3_t () Real)
(declare-fun v_3_3_0 () Real)
(declare-fun u_1_0_t () Real)
(declare-fun u_1_0_0 () Real)
(declare-fun u_1_1_t () Real)
(declare-fun u_1_1_0 () Real)
(declare-fun u_1_2_t () Real)
(declare-fun u_1_2_0 () Real)
(declare-fun u_1_3_t () Real)
(declare-fun u_1_3_0 () Real)
(declare-fun u_2_0_t () Real)
(declare-fun u_2_0_0 () Real)
(declare-fun u_2_1_t () Real)
(declare-fun u_2_1_0 () Real)
(declare-fun u_2_2_t () Real)
(declare-fun u_2_2_0 () Real)
(declare-fun u_2_3_t () Real)
(declare-fun u_2_3_0 () Real)
(declare-fun u_3_0_t () Real)
(declare-fun u_3_0_0 () Real)
(declare-fun u_3_1_t () Real)
(declare-fun u_3_1_0 () Real)
(declare-fun u_3_2_t () Real)
(declare-fun u_3_2_0 () Real)
(declare-fun u_3_3_t () Real)
(declare-fun u_3_3_0 () Real)
(declare-fun s_1_0_t () Real)
(declare-fun s_1_0_0 () Real)
(declare-fun s_1_1_t () Real)
(declare-fun s_1_1_0 () Real)
(declare-fun s_1_2_t () Real)
(declare-fun s_1_2_0 () Real)
(declare-fun s_1_3_t () Real)
(declare-fun s_1_3_0 () Real)
(declare-fun s_2_0_t () Real)
(declare-fun s_2_0_0 () Real)
(declare-fun s_2_1_t () Real)
(declare-fun s_2_1_0 () Real)
(declare-fun s_2_2_t () Real)
(declare-fun s_2_2_0 () Real)
(declare-fun s_2_3_t () Real)
(declare-fun s_2_3_0 () Real)
(declare-fun s_3_0_t () Real)
(declare-fun s_3_0_0 () Real)
(declare-fun s_3_1_t () Real)
(declare-fun s_3_1_0 () Real)
(declare-fun s_3_2_t () Real)
(declare-fun s_3_2_0 () Real)
(declare-fun s_3_3_t () Real)
(declare-fun s_3_3_0 () Real)
(define-ode (= d/dt[u_1_1] (- (+ (+ (/ 27182 10000) (* (* (- u_1_1 (/ 3 10)) (- (/ 155 100) u_1_1)) (* v_1_1 (/ 90909 10000)))) (* w_1_1 (* s_1_1 (/ 5298 10000)))) (* (/ 33331 100000) u_1_1))))
(define-ode (= d/dt[v_1_1] (* (- 0 v_1_1) (/ 68936 100000))))
(define-ode (= d/dt[w_1_1] (* (- 0 w_1_1) (/ 005 1000))))
(define-ode (= d/dt[s_1_1] (- (* (/ 1 (+ 1 (exp (* -2 (* (/ 20994 10000) (- u_1_1 (/ 9087 10000))))))) (/ 0625 10000)) (* s_1_1 (/ 0625 10000)))))
(define-ode (= d/dt[u_0_1] (- (+ (+ (/ 27182 10000) (* (* (- u_0_1 (/ 3 10)) (- (/ 155 100) u_0_1)) (* v_0_1 (/ 90909 10000)))) (* w_0_1 (* s_0_1 (/ 5298 10000)))) (* (/ 33331 100000) u_0_1))))
(define-ode (= d/dt[v_0_1] (* (- 0 v_0_1) (/ 68936 100000))))
(define-ode (= d/dt[w_0_1] (* (- 0 w_0_1) (/ 005 1000))))
(define-ode (= d/dt[s_0_1] (- (* (/ 1 (+ 1 (exp (* -2 (* (/ 20994 10000) (- u_0_1 (/ 9087 10000))))))) (/ 0625 10000)) (* s_0_1 (/ 0625 10000)))))
(define-ode (= d/dt[u_1_2] (- (+ (/ 27182 10000) (* w_1_2 (* s_1_2 (/ 5298 10000)))) (* (/ 33331 100000) u_1_2))))
(define-ode (= d/dt[v_1_2] (* (- 0 v_1_2) (/ 00086 100000))))
(define-ode (= d/dt[w_1_2] (* (- 0 w_1_2) (/ 005 1000))))
(define-ode (= d/dt[s_1_2] (- (* (/ 1 (+ 1 (exp (* -2 (* (/ 20994 10000) (- u_1_2 (/ 9087 10000))))))) (/ 0625 10000)) (* s_1_2 (/ 0625 10000)))))
(define-ode (= d/dt[u_1_3] (- (/ 27182 10000) (* u_1_3 (/ 16666 100000)))))
(define-ode (= d/dt[v_1_3] (* (- 0 v_1_3) (/ 00086 100000))))
(define-ode (= d/dt[w_1_3] (* (- (/ 94 100) w_1_3) (* (/ 01666 100000) u_1_3))))
(define-ode (= d/dt[s_1_3] (- (* (/ 1 (+ 1 (exp (* -2 (* (/ 20994 10000) (- u_1_3 (/ 9087 10000))))))) (/ 36453 100000)) (* s_1_3 (/ 36453 100000)))))
(define-ode (= d/dt[u_1_4] (- (/ 27182 10000) (* u_1_4 (/ 0025 10000)))))
(define-ode (= d/dt[v_1_4] (* (- 1 v_1_4) (/ 01666 100000))))
(define-ode (= d/dt[w_1_4] (* (- (- 1 (* u_1_4 (/ 1428571 10000))) w_1_4) (* (/ 01666 100000) u_1_4))))
(define-ode (= d/dt[s_1_4] (- (* (/ 1 (+ 1 (exp (* -2 (* (/ 20994 10000) (- u_1_4 (/ 9087 10000))))))) (/ 36453 100000)) (* s_1_4 (/ 36453 100000)))))
(define-ode (= d/dt[u_0_1] (- (+ (+ (/ 27182 10000) (* (* (- u_0_1 (/ 3 10)) (- (/ 155 100) u_0_1)) (* v_0_1 (/ 90909 10000)))) (* w_0_1 (* s_0_1 (/ 5298 10000)))) (* (/ 33331 100000) u_0_1))))
(define-ode (= d/dt[v_0_1] (* (- 0 v_0_1) (/ 68936 100000))))
(define-ode (= d/dt[w_0_1] (* (- 0 w_0_1) (/ 005 1000))))
(define-ode (= d/dt[s_0_1] (- (* (/ 1 (+ 1 (exp (* -2 (* (/ 20994 10000) (- u_0_1 (/ 9087 10000))))))) (/ 0625 10000)) (* s_0_1 (/ 0625 10000)))))
(define-ode (= d/dt[u_1_2] (- (+ (/ 27182 10000) (* w_1_2 (* s_1_2 (/ 5298 10000)))) (* (/ 33331 100000) u_1_2))))
(define-ode (= d/dt[v_1_2] (* (- 0 v_1_2) (/ 00086 100000))))
(define-ode (= d/dt[w_1_2] (* (- 0 w_1_2) (/ 005 1000))))
(define-ode (= d/dt[s_1_2] (- (* (/ 1 (+ 1 (exp (* -2 (* (/ 20994 10000) (- u_1_2 (/ 9087 10000))))))) (/ 0625 10000)) (* s_1_2 (/ 0625 10000)))))
(define-ode (= d/dt[u_2_1] (- (+ (+ (/ 27182 10000) (* (* (- u_2_1 (/ 3 10)) (- (/ 155 100) u_2_1)) (* v_2_1 (/ 90909 10000)))) (* w_2_1 (* s_2_1 (/ 5298 10000)))) (* (/ 33331 100000) u_2_1))))
(define-ode (= d/dt[v_2_1] (* (- 0 v_2_1) (/ 68936 100000))))
(define-ode (= d/dt[w_2_1] (* (- 0 w_2_1) (/ 005 1000))))
(define-ode (= d/dt[s_2_1] (- (* (/ 1 (+ 1 (exp (* -2 (* (/ 20994 10000) (- u_2_1 (/ 9087 10000))))))) (/ 0625 10000)) (* s_2_1 (/ 0625 10000)))))
(define-ode (= d/dt[u_1_3] (- (/ 27182 10000) (* u_1_3 (/ 16666 100000)))))
(define-ode (= d/dt[v_1_3] (* (- 0 v_1_3) (/ 00086 100000))))
(define-ode (= d/dt[w_1_3] (* (- (/ 94 100) w_1_3) (* (/ 01666 100000) u_1_3))))
(define-ode (= d/dt[s_1_3] (- (* (/ 1 (+ 1 (exp (* -2 (* (/ 20994 10000) (- u_1_3 (/ 9087 10000))))))) (/ 36453 100000)) (* s_1_3 (/ 36453 100000)))))
(define-ode (= d/dt[u_1_1] (- (+ (+ (/ 27182 10000) (* (* (- u_1_1 (/ 3 10)) (- (/ 155 100) u_1_1)) (* v_1_1 (/ 90909 10000)))) (* w_1_1 (* s_1_1 (/ 5298 10000)))) (* (/ 33331 100000) u_1_1))))
(define-ode (= d/dt[v_1_1] (* (- 0 v_1_1) (/ 68936 100000))))
(define-ode (= d/dt[w_1_1] (* (- 0 w_1_1) (/ 005 1000))))
(define-ode (= d/dt[s_1_1] (- (* (/ 1 (+ 1 (exp (* -2 (* (/ 20994 10000) (- u_1_1 (/ 9087 10000))))))) (/ 0625 10000)) (* s_1_1 (/ 0625 10000)))))
(define-ode (= d/dt[u_2_2] (- (+ (/ 27182 10000) (* w_2_2 (* s_2_2 (/ 5298 10000)))) (* (/ 33331 100000) u_2_2))))
(define-ode (= d/dt[v_2_2] (* (- 0 v_2_2) (/ 00086 100000))))
(define-ode (= d/dt[w_2_2] (* (- 0 w_2_2) (/ 005 1000))))
(define-ode (= d/dt[s_2_2] (- (* (/ 1 (+ 1 (exp (* -2 (* (/ 20994 10000) (- u_2_2 (/ 9087 10000))))))) (/ 0625 10000)) (* s_2_2 (/ 0625 10000)))))
(define-ode (= d/dt[u_1_4] (- (/ 27182 10000) (* u_1_4 (/ 0025 10000)))))
(define-ode (= d/dt[v_1_4] (* (- 1 v_1_4) (/ 01666 100000))))
(define-ode (= d/dt[w_1_4] (* (- (- 1 (* u_1_4 (/ 1428571 10000))) w_1_4) (* (/ 01666 100000) u_1_4))))
(define-ode (= d/dt[s_1_4] (- (* (/ 1 (+ 1 (exp (* -2 (* (/ 20994 10000) (- u_1_4 (/ 9087 10000))))))) (/ 36453 100000)) (* s_1_4 (/ 36453 100000)))))
(define-ode (= d/dt[u_0_1] (- (+ (+ (/ 27182 10000) (* (* (- u_0_1 (/ 3 10)) (- (/ 155 100) u_0_1)) (* v_0_1 (/ 90909 10000)))) (* w_0_1 (* s_0_1 (/ 5298 10000)))) (* (/ 33331 100000) u_0_1))))
(define-ode (= d/dt[v_0_1] (* (- 0 v_0_1) (/ 68936 100000))))
(define-ode (= d/dt[w_0_1] (* (- 0 w_0_1) (/ 005 1000))))
(define-ode (= d/dt[s_0_1] (- (* (/ 1 (+ 1 (exp (* -2 (* (/ 20994 10000) (- u_0_1 (/ 9087 10000))))))) (/ 0625 10000)) (* s_0_1 (/ 0625 10000)))))
(define-ode (= d/dt[u_1_2] (- (+ (/ 27182 10000) (* w_1_2 (* s_1_2 (/ 5298 10000)))) (* (/ 33331 100000) u_1_2))))
(define-ode (= d/dt[v_1_2] (* (- 0 v_1_2) (/ 00086 100000))))
(define-ode (= d/dt[w_1_2] (* (- 0 w_1_2) (/ 005 1000))))
(define-ode (= d/dt[s_1_2] (- (* (/ 1 (+ 1 (exp (* -2 (* (/ 20994 10000) (- u_1_2 (/ 9087 10000))))))) (/ 0625 10000)) (* s_1_2 (/ 0625 10000)))))
(define-ode (= d/dt[u_2_3] (- (/ 27182 10000) (* u_2_3 (/ 16666 100000)))))
(define-ode (= d/dt[v_2_3] (* (- 0 v_2_3) (/ 00086 100000))))
(define-ode (= d/dt[w_2_3] (* (- (/ 94 100) w_2_3) (* (/ 01666 100000) u_2_3))))
(define-ode (= d/dt[s_2_3] (- (* (/ 1 (+ 1 (exp (* -2 (* (/ 20994 10000) (- u_2_3 (/ 9087 10000))))))) (/ 36453 100000)) (* s_2_3 (/ 36453 100000)))))
(define-ode (= d/dt[u_1_3] (- (/ 27182 10000) (* u_1_3 (/ 16666 100000)))))
(define-ode (= d/dt[v_1_3] (* (- 0 v_1_3) (/ 00086 100000))))
(define-ode (= d/dt[w_1_3] (* (- (/ 94 100) w_1_3) (* (/ 01666 100000) u_1_3))))
(define-ode (= d/dt[s_1_3] (- (* (/ 1 (+ 1 (exp (* -2 (* (/ 20994 10000) (- u_1_3 (/ 9087 10000))))))) (/ 36453 100000)) (* s_1_3 (/ 36453 100000)))))
(define-ode (= d/dt[u_2_4] (- (/ 27182 10000) (* u_2_4 (/ 0025 10000)))))
(define-ode (= d/dt[v_2_4] (* (- 1 v_2_4) (/ 01666 100000))))
(define-ode (= d/dt[w_2_4] (* (- (- 1 (* u_2_4 (/ 1428571 10000))) w_2_4) (* (/ 01666 100000) u_2_4))))
(define-ode (= d/dt[s_2_4] (- (* (/ 1 (+ 1 (exp (* -2 (* (/ 20994 10000) (- u_2_4 (/ 9087 10000))))))) (/ 36453 100000)) (* s_2_4 (/ 36453 100000)))))
(define-ode (= d/dt[u_1_3] (- (/ 27182 10000) (* u_1_3 (/ 16666 100000)))))
(define-ode (= d/dt[v_1_3] (* (- 0 v_1_3) (/ 00086 100000))))
(define-ode (= d/dt[w_1_3] (* (- (/ 94 100) w_1_3) (* (/ 01666 100000) u_1_3))))
(define-ode (= d/dt[s_1_3] (- (* (/ 1 (+ 1 (exp (* -2 (* (/ 20994 10000) (- u_1_3 (/ 9087 10000))))))) (/ 36453 100000)) (* s_1_3 (/ 36453 100000)))))
(define-ode (= d/dt[u_1_1] (- (+ (+ (/ 27182 10000) (* (* (- u_1_1 (/ 3 10)) (- (/ 155 100) u_1_1)) (* v_1_1 (/ 90909 10000)))) (* w_1_1 (* s_1_1 (/ 5298 10000)))) (* (/ 33331 100000) u_1_1))))
(define-ode (= d/dt[v_1_1] (* (- 0 v_1_1) (/ 68936 100000))))
(define-ode (= d/dt[w_1_1] (* (- 0 w_1_1) (/ 005 1000))))
(define-ode (= d/dt[s_1_1] (- (* (/ 1 (+ 1 (exp (* -2 (* (/ 20994 10000) (- u_1_1 (/ 9087 10000))))))) (/ 0625 10000)) (* s_1_1 (/ 0625 10000)))))
(define-ode (= d/dt[u_2_2] (- (+ (/ 27182 10000) (* w_2_2 (* s_2_2 (/ 5298 10000)))) (* (/ 33331 100000) u_2_2))))
(define-ode (= d/dt[v_2_2] (* (- 0 v_2_2) (/ 00086 100000))))
(define-ode (= d/dt[w_2_2] (* (- 0 w_2_2) (/ 005 1000))))
(define-ode (= d/dt[s_2_2] (- (* (/ 1 (+ 1 (exp (* -2 (* (/ 20994 10000) (- u_2_2 (/ 9087 10000))))))) (/ 0625 10000)) (* s_2_2 (/ 0625 10000)))))
(define-ode (= d/dt[u_3_1] (- (+ (+ (/ 27182 10000) (* (* (- u_3_1 (/ 3 10)) (- (/ 155 100) u_3_1)) (* v_3_1 (/ 90909 10000)))) (* w_3_1 (* s_3_1 (/ 5298 10000)))) (* (/ 33331 100000) u_3_1))))
(define-ode (= d/dt[v_3_1] (* (- 0 v_3_1) (/ 68936 100000))))
(define-ode (= d/dt[w_3_1] (* (- 0 w_3_1) (/ 005 1000))))
(define-ode (= d/dt[s_3_1] (- (* (/ 1 (+ 1 (exp (* -2 (* (/ 20994 10000) (- u_3_1 (/ 9087 10000))))))) (/ 0625 10000)) (* s_3_1 (/ 0625 10000)))))
(define-ode (= d/dt[u_1_4] (- (/ 27182 10000) (* u_1_4 (/ 0025 10000)))))
(define-ode (= d/dt[v_1_4] (* (- 1 v_1_4) (/ 01666 100000))))
(define-ode (= d/dt[w_1_4] (* (- (- 1 (* u_1_4 (/ 1428571 10000))) w_1_4) (* (/ 01666 100000) u_1_4))))
(define-ode (= d/dt[s_1_4] (- (* (/ 1 (+ 1 (exp (* -2 (* (/ 20994 10000) (- u_1_4 (/ 9087 10000))))))) (/ 36453 100000)) (* s_1_4 (/ 36453 100000)))))
(define-ode (= d/dt[u_0_1] (- (+ (+ (/ 27182 10000) (* (* (- u_0_1 (/ 3 10)) (- (/ 155 100) u_0_1)) (* v_0_1 (/ 90909 10000)))) (* w_0_1 (* s_0_1 (/ 5298 10000)))) (* (/ 33331 100000) u_0_1))))
(define-ode (= d/dt[v_0_1] (* (- 0 v_0_1) (/ 68936 100000))))
(define-ode (= d/dt[w_0_1] (* (- 0 w_0_1) (/ 005 1000))))
(define-ode (= d/dt[s_0_1] (- (* (/ 1 (+ 1 (exp (* -2 (* (/ 20994 10000) (- u_0_1 (/ 9087 10000))))))) (/ 0625 10000)) (* s_0_1 (/ 0625 10000)))))
(define-ode (= d/dt[u_1_2] (- (+ (/ 27182 10000) (* w_1_2 (* s_1_2 (/ 5298 10000)))) (* (/ 33331 100000) u_1_2))))
(define-ode (= d/dt[v_1_2] (* (- 0 v_1_2) (/ 00086 100000))))
(define-ode (= d/dt[w_1_2] (* (- 0 w_1_2) (/ 005 1000))))
(define-ode (= d/dt[s_1_2] (- (* (/ 1 (+ 1 (exp (* -2 (* (/ 20994 10000) (- u_1_2 (/ 9087 10000))))))) (/ 0625 10000)) (* s_1_2 (/ 0625 10000)))))
(define-ode (= d/dt[u_2_3] (- (/ 27182 10000) (* u_2_3 (/ 16666 100000)))))
(define-ode (= d/dt[v_2_3] (* (- 0 v_2_3) (/ 00086 100000))))
(define-ode (= d/dt[w_2_3] (* (- (/ 94 100) w_2_3) (* (/ 01666 100000) u_2_3))))
(define-ode (= d/dt[s_2_3] (- (* (/ 1 (+ 1 (exp (* -2 (* (/ 20994 10000) (- u_2_3 (/ 9087 10000))))))) (/ 36453 100000)) (* s_2_3 (/ 36453 100000)))))
(define-ode (= d/dt[u_0_1] (- (+ (+ (/ 27182 10000) (* (* (- u_0_1 (/ 3 10)) (- (/ 155 100) u_0_1)) (* v_0_1 (/ 90909 10000)))) (* w_0_1 (* s_0_1 (/ 5298 10000)))) (* (/ 33331 100000) u_0_1))))
(define-ode (= d/dt[v_0_1] (* (- 0 v_0_1) (/ 68936 100000))))
(define-ode (= d/dt[w_0_1] (* (- 0 w_0_1) (/ 005 1000))))
(define-ode (= d/dt[s_0_1] (- (* (/ 1 (+ 1 (exp (* -2 (* (/ 20994 10000) (- u_0_1 (/ 9087 10000))))))) (/ 0625 10000)) (* s_0_1 (/ 0625 10000)))))
(define-ode (= d/dt[u_1_2] (- (+ (/ 27182 10000) (* w_1_2 (* s_1_2 (/ 5298 10000)))) (* (/ 33331 100000) u_1_2))))
(define-ode (= d/dt[v_1_2] (* (- 0 v_1_2) (/ 00086 100000))))
(define-ode (= d/dt[w_1_2] (* (- 0 w_1_2) (/ 005 1000))))
(define-ode (= d/dt[s_1_2] (- (* (/ 1 (+ 1 (exp (* -2 (* (/ 20994 10000) (- u_1_2 (/ 9087 10000))))))) (/ 0625 10000)) (* s_1_2 (/ 0625 10000)))))
(define-ode (= d/dt[u_2_1] (- (+ (+ (/ 27182 10000) (* (* (- u_2_1 (/ 3 10)) (- (/ 155 100) u_2_1)) (* v_2_1 (/ 90909 10000)))) (* w_2_1 (* s_2_1 (/ 5298 10000)))) (* (/ 33331 100000) u_2_1))))
(define-ode (= d/dt[v_2_1] (* (- 0 v_2_1) (/ 68936 100000))))
(define-ode (= d/dt[w_2_1] (* (- 0 w_2_1) (/ 005 1000))))
(define-ode (= d/dt[s_2_1] (- (* (/ 1 (+ 1 (exp (* -2 (* (/ 20994 10000) (- u_2_1 (/ 9087 10000))))))) (/ 0625 10000)) (* s_2_1 (/ 0625 10000)))))
(define-ode (= d/dt[u_3_2] (- (+ (/ 27182 10000) (* w_3_2 (* s_3_2 (/ 5298 10000)))) (* (/ 33331 100000) u_3_2))))
(define-ode (= d/dt[v_3_2] (* (- 0 v_3_2) (/ 00086 100000))))
(define-ode (= d/dt[w_3_2] (* (- 0 w_3_2) (/ 005 1000))))
(define-ode (= d/dt[s_3_2] (- (* (/ 1 (+ 1 (exp (* -2 (* (/ 20994 10000) (- u_3_2 (/ 9087 10000))))))) (/ 0625 10000)) (* s_3_2 (/ 0625 10000)))))
(define-ode (= d/dt[u_1_3] (- (/ 27182 10000) (* u_1_3 (/ 16666 100000)))))
(define-ode (= d/dt[v_1_3] (* (- 0 v_1_3) (/ 00086 100000))))
(define-ode (= d/dt[w_1_3] (* (- (/ 94 100) w_1_3) (* (/ 01666 100000) u_1_3))))
(define-ode (= d/dt[s_1_3] (- (* (/ 1 (+ 1 (exp (* -2 (* (/ 20994 10000) (- u_1_3 (/ 9087 10000))))))) (/ 36453 100000)) (* s_1_3 (/ 36453 100000)))))
(define-ode (= d/dt[u_2_4] (- (/ 27182 10000) (* u_2_4 (/ 0025 10000)))))
(define-ode (= d/dt[v_2_4] (* (- 1 v_2_4) (/ 01666 100000))))
(define-ode (= d/dt[w_2_4] (* (- (- 1 (* u_2_4 (/ 1428571 10000))) w_2_4) (* (/ 01666 100000) u_2_4))))
(define-ode (= d/dt[s_2_4] (- (* (/ 1 (+ 1 (exp (* -2 (* (/ 20994 10000) (- u_2_4 (/ 9087 10000))))))) (/ 36453 100000)) (* s_2_4 (/ 36453 100000)))))
(define-ode (= d/dt[u_1_3] (- (/ 27182 10000) (* u_1_3 (/ 16666 100000)))))
(define-ode (= d/dt[v_1_3] (* (- 0 v_1_3) (/ 00086 100000))))
(define-ode (= d/dt[w_1_3] (* (- (/ 94 100) w_1_3) (* (/ 01666 100000) u_1_3))))
(define-ode (= d/dt[s_1_3] (- (* (/ 1 (+ 1 (exp (* -2 (* (/ 20994 10000) (- u_1_3 (/ 9087 10000))))))) (/ 36453 100000)) (* s_1_3 (/ 36453 100000)))))
(define-ode (= d/dt[u_1_1] (- (+ (+ (/ 27182 10000) (* (* (- u_1_1 (/ 3 10)) (- (/ 155 100) u_1_1)) (* v_1_1 (/ 90909 10000)))) (* w_1_1 (* s_1_1 (/ 5298 10000)))) (* (/ 33331 100000) u_1_1))))
(define-ode (= d/dt[v_1_1] (* (- 0 v_1_1) (/ 68936 100000))))
(define-ode (= d/dt[w_1_1] (* (- 0 w_1_1) (/ 005 1000))))
(define-ode (= d/dt[s_1_1] (- (* (/ 1 (+ 1 (exp (* -2 (* (/ 20994 10000) (- u_1_1 (/ 9087 10000))))))) (/ 0625 10000)) (* s_1_1 (/ 0625 10000)))))
(define-ode (= d/dt[u_2_2] (- (+ (/ 27182 10000) (* w_2_2 (* s_2_2 (/ 5298 10000)))) (* (/ 33331 100000) u_2_2))))
(define-ode (= d/dt[v_2_2] (* (- 0 v_2_2) (/ 00086 100000))))
(define-ode (= d/dt[w_2_2] (* (- 0 w_2_2) (/ 005 1000))))
(define-ode (= d/dt[s_2_2] (- (* (/ 1 (+ 1 (exp (* -2 (* (/ 20994 10000) (- u_2_2 (/ 9087 10000))))))) (/ 0625 10000)) (* s_2_2 (/ 0625 10000)))))
(define-ode (= d/dt[u_3_3] (- (/ 27182 10000) (* u_3_3 (/ 16666 100000)))))
(define-ode (= d/dt[v_3_3] (* (- 0 v_3_3) (/ 00086 100000))))
(define-ode (= d/dt[w_3_3] (* (- (/ 94 100) w_3_3) (* (/ 01666 100000) u_3_3))))
(define-ode (= d/dt[s_3_3] (- (* (/ 1 (+ 1 (exp (* -2 (* (/ 20994 10000) (- u_3_3 (/ 9087 10000))))))) (/ 36453 100000)) (* s_3_3 (/ 36453 100000)))))
(define-ode (= d/dt[u_1_4] (- (/ 27182 10000) (* u_1_4 (/ 0025 10000)))))
(define-ode (= d/dt[v_1_4] (* (- 1 v_1_4) (/ 01666 100000))))
(define-ode (= d/dt[w_1_4] (* (- (- 1 (* u_1_4 (/ 1428571 10000))) w_1_4) (* (/ 01666 100000) u_1_4))))
(define-ode (= d/dt[s_1_4] (- (* (/ 1 (+ 1 (exp (* -2 (* (/ 20994 10000) (- u_1_4 (/ 9087 10000))))))) (/ 36453 100000)) (* s_1_4 (/ 36453 100000)))))
(define-ode (= d/dt[u_0_1] (- (+ (+ (/ 27182 10000) (* (* (- u_0_1 (/ 3 10)) (- (/ 155 100) u_0_1)) (* v_0_1 (/ 90909 10000)))) (* w_0_1 (* s_0_1 (/ 5298 10000)))) (* (/ 33331 100000) u_0_1))))
(define-ode (= d/dt[v_0_1] (* (- 0 v_0_1) (/ 68936 100000))))
(define-ode (= d/dt[w_0_1] (* (- 0 w_0_1) (/ 005 1000))))
(define-ode (= d/dt[s_0_1] (- (* (/ 1 (+ 1 (exp (* -2 (* (/ 20994 10000) (- u_0_1 (/ 9087 10000))))))) (/ 0625 10000)) (* s_0_1 (/ 0625 10000)))))
(define-ode (= d/dt[u_1_2] (- (+ (/ 27182 10000) (* w_1_2 (* s_1_2 (/ 5298 10000)))) (* (/ 33331 100000) u_1_2))))
(define-ode (= d/dt[v_1_2] (* (- 0 v_1_2) (/ 00086 100000))))
(define-ode (= d/dt[w_1_2] (* (- 0 w_1_2) (/ 005 1000))))
(define-ode (= d/dt[s_1_2] (- (* (/ 1 (+ 1 (exp (* -2 (* (/ 20994 10000) (- u_1_2 (/ 9087 10000))))))) (/ 0625 10000)) (* s_1_2 (/ 0625 10000)))))
(define-ode (= d/dt[u_2_3] (- (/ 27182 10000) (* u_2_3 (/ 16666 100000)))))
(define-ode (= d/dt[v_2_3] (* (- 0 v_2_3) (/ 00086 100000))))
(define-ode (= d/dt[w_2_3] (* (- (/ 94 100) w_2_3) (* (/ 01666 100000) u_2_3))))
(define-ode (= d/dt[s_2_3] (- (* (/ 1 (+ 1 (exp (* -2 (* (/ 20994 10000) (- u_2_3 (/ 9087 10000))))))) (/ 36453 100000)) (* s_2_3 (/ 36453 100000)))))
(define-ode (= d/dt[u_3_4] (- (/ 27182 10000) (* u_3_4 (/ 0025 10000)))))
(define-ode (= d/dt[v_3_4] (* (- 1 v_3_4) (/ 01666 100000))))
(define-ode (= d/dt[w_3_4] (* (- (- 1 (* u_3_4 (/ 1428571 10000))) w_3_4) (* (/ 01666 100000) u_3_4))))
(define-ode (= d/dt[s_3_4] (- (* (/ 1 (+ 1 (exp (* -2 (* (/ 20994 10000) (- u_3_4 (/ 9087 10000))))))) (/ 36453 100000)) (* s_3_4 (/ 36453 100000)))))
(assert
(and
(and (<= (/ 95 100) w_1_0_t) (<= w_1_0_t 1))(and (<= (/ 95 100) w_1_0_0) (<= w_1_0_0 1))(and (<= (/ 95 100) w_1_1_t) (<= w_1_1_t 1))(and (<= (/ 95 100) w_1_1_0) (<= w_1_1_0 1))(and (<= (/ 95 100) w_1_2_t) (<= w_1_2_t 1))(and (<= (/ 95 100) w_1_2_0) (<= w_1_2_0 1))(and (<= (/ 95 100) w_1_3_t) (<= w_1_3_t 1))(and (<= (/ 95 100) w_1_3_0) (<= w_1_3_0 1))(and (<= (/ 95 100) w_2_0_t) (<= w_2_0_t 1))(and (<= (/ 95 100) w_2_0_0) (<= w_2_0_0 1))(and (<= (/ 95 100) w_2_1_t) (<= w_2_1_t 1))(and (<= (/ 95 100) w_2_1_0) (<= w_2_1_0 1))(and (<= (/ 95 100) w_2_2_t) (<= w_2_2_t 1))(and (<= (/ 95 100) w_2_2_0) (<= w_2_2_0 1))(and (<= (/ 95 100) w_2_3_t) (<= w_2_3_t 1))(and (<= (/ 95 100) w_2_3_0) (<= w_2_3_0 1))(and (<= (/ 95 100) w_3_0_t) (<= w_3_0_t 1))(and (<= (/ 95 100) w_3_0_0) (<= w_3_0_0 1))(and (<= (/ 95 100) w_3_1_t) (<= w_3_1_t 1))(and (<= (/ 95 100) w_3_1_0) (<= w_3_1_0 1))(and (<= (/ 95 100) w_3_2_t) (<= w_3_2_t 1))(and (<= (/ 95 100) w_3_2_0) (<= w_3_2_0 1))(and (<= (/ 95 100) w_3_3_t) (<= w_3_3_t 1))(and (<= (/ 95 100) w_3_3_0) (<= w_3_3_0 1))(and (<= (/ 95 100) v_1_0_t) (<= v_1_0_t 1))(and (<= (/ 95 100) v_1_0_0) (<= v_1_0_0 1))(and (<= (/ 95 100) v_1_1_t) (<= v_1_1_t 1))(and (<= (/ 95 100) v_1_1_0) (<= v_1_1_0 1))(and (<= (/ 95 100) v_1_2_t) (<= v_1_2_t 1))(and (<= (/ 95 100) v_1_2_0) (<= v_1_2_0 1))(and (<= (/ 95 100) v_1_3_t) (<= v_1_3_t 1))(and (<= (/ 95 100) v_1_3_0) (<= v_1_3_0 1))(and (<= (/ 95 100) v_2_0_t) (<= v_2_0_t 1))(and (<= (/ 95 100) v_2_0_0) (<= v_2_0_0 1))(and (<= (/ 95 100) v_2_1_t) (<= v_2_1_t 1))(and (<= (/ 95 100) v_2_1_0) (<= v_2_1_0 1))(and (<= (/ 95 100) v_2_2_t) (<= v_2_2_t 1))(and (<= (/ 95 100) v_2_2_0) (<= v_2_2_0 1))(and (<= (/ 95 100) v_2_3_t) (<= v_2_3_t 1))(and (<= (/ 95 100) v_2_3_0) (<= v_2_3_0 1))(and (<= (/ 95 100) v_3_0_t) (<= v_3_0_t 1))(and (<= (/ 95 100) v_3_0_0) (<= v_3_0_0 1))(and (<= (/ 95 100) v_3_1_t) (<= v_3_1_t 1))(and (<= (/ 95 100) v_3_1_0) (<= v_3_1_0 1))(and (<= (/ 95 100) v_3_2_t) (<= v_3_2_t 1))(and (<= (/ 95 100) v_3_2_0) (<= v_3_2_0 1))(and (<= (/ 95 100) v_3_3_t) (<= v_3_3_t 1))(and (<= (/ 95 100) v_3_3_0) (<= v_3_3_0 1))(and (<= 0 u_1_0_t) (<= u_1_0_t 2))(and (<= 0 u_1_0_0) (<= u_1_0_0 2))(and (<= 0 u_1_1_t) (<= u_1_1_t 2))(and (<= 0 u_1_1_0) (<= u_1_1_0 2))(and (<= 0 u_1_2_t) (<= u_1_2_t 2))(and (<= 0 u_1_2_0) (<= u_1_2_0 2))(and (<= 0 u_1_3_t) (<= u_1_3_t 2))(and (<= 0 u_1_3_0) (<= u_1_3_0 2))(and (<= 0 u_2_0_t) (<= u_2_0_t 2))(and (<= 0 u_2_0_0) (<= u_2_0_0 2))(and (<= 0 u_2_1_t) (<= u_2_1_t 2))(and (<= 0 u_2_1_0) (<= u_2_1_0 2))(and (<= 0 u_2_2_t) (<= u_2_2_t 2))(and (<= 0 u_2_2_0) (<= u_2_2_0 2))(and (<= 0 u_2_3_t) (<= u_2_3_t 2))(and (<= 0 u_2_3_0) (<= u_2_3_0 2))(and (<= 0 u_3_0_t) (<= u_3_0_t 2))(and (<= 0 u_3_0_0) (<= u_3_0_0 2))(and (<= 0 u_3_1_t) (<= u_3_1_t 2))(and (<= 0 u_3_1_0) (<= u_3_1_0 2))(and (<= 0 u_3_2_t) (<= u_3_2_t 2))(and (<= 0 u_3_2_0) (<= u_3_2_0 2))(and (<= 0 u_3_3_t) (<= u_3_3_t 2))(and (<= 0 u_3_3_0) (<= u_3_3_0 2))(and (<= 0 s_1_0_t) (<= s_1_0_t (/ 01 100)))(and (<= 0 s_1_0_0) (<= s_1_0_0 (/ 01 100)))(and (<= 0 s_1_1_t) (<= s_1_1_t (/ 01 100)))(and (<= 0 s_1_1_0) (<= s_1_1_0 (/ 01 100)))(and (<= 0 s_1_2_t) (<= s_1_2_t (/ 01 100)))(and (<= 0 s_1_2_0) (<= s_1_2_0 (/ 01 100)))(and (<= 0 s_1_3_t) (<= s_1_3_t (/ 01 100)))(and (<= 0 s_1_3_0) (<= s_1_3_0 (/ 01 100)))(and (<= 0 s_2_0_t) (<= s_2_0_t (/ 01 100)))(and (<= 0 s_2_0_0) (<= s_2_0_0 (/ 01 100)))(and (<= 0 s_2_1_t) (<= s_2_1_t (/ 01 100)))(and (<= 0 s_2_1_0) (<= s_2_1_0 (/ 01 100)))(and (<= 0 s_2_2_t) (<= s_2_2_t (/ 01 100)))(and (<= 0 s_2_2_0) (<= s_2_2_0 (/ 01 100)))(and (<= 0 s_2_3_t) (<= s_2_3_t (/ 01 100)))(and (<= 0 s_2_3_0) (<= s_2_3_0 (/ 01 100)))(and (<= 0 s_3_0_t) (<= s_3_0_t (/ 01 100)))(and (<= 0 s_3_0_0) (<= s_3_0_0 (/ 01 100)))(and (<= 0 s_3_1_t) (<= s_3_1_t (/ 01 100)))(and (<= 0 s_3_1_0) (<= s_3_1_0 (/ 01 100)))(and (<= 0 s_3_2_t) (<= s_3_2_t (/ 01 100)))(and (<= 0 s_3_2_0) (<= s_3_2_0 (/ 01 100)))(and (<= 0 s_3_3_t) (<= s_3_3_t (/ 01 100)))(and (<= 0 s_3_3_0) (<= s_3_3_0 (/ 01 100)))(and (not (and (< u_3_1_t (/ 3 10)) (< u_2_1_t (/ 3 10)) (< u_1_1_t (/ 3 10)))) (or (or (and (or (and (and (< u_2_3_t (/ 006 1000))) (and (or (and (and (< u_1_2_t (/ 13 100))) (and (or (and (and (and (< u_0_1_t (/ 3 10)) (> u_0_1_t (/ 283 1000))))))))))))) (and (or (and (and (and (< u_2_1_t (/ 3 10)) (> u_2_1_t (/ 283 1000)))) (and (or (and (and (>= u_1_2_t (/ 13 100))) (and (or (and (and (and (< u_0_1_t (/ 3 10)) (> u_0_1_t (/ 283 1000))))))))))) (and (and (>= u_2_3_t (/ 13 100))) (and (or (and (and (< u_1_2_t (/ 13 100))) (and (or (and (and (and (< u_0_1_t (/ 3 10)) (> u_0_1_t (/ 283 1000)))))))))))))) (or (and (or (and (and (< u_1_2_t (/ 13 100))) (and (or (and (and (and (< u_0_1_t (/ 3 10)) (> u_0_1_t (/ 283 1000)))))))))) (and (or (and (and (>= u_1_2_t (/ 13 100))) (and (or (and (and (and (< u_0_1_t (/ 3 10)) (> u_0_1_t (/ 283 1000))))))))))) (or (and (or (and (and (and (< u_0_1_t (/ 3 10)) (> u_0_1_t (/ 283 1000)))))))))))
)
(check-sat)
(exit)
